
Gurobi 13.0.2 (win64) logging started Fri Jul 24 09:40:26 2026

Set parameter LogFile to value "E:\codes\ExactEBRP\results\gf_c0_mechanism_transfer_c5_round30\runs\stage2__moderate_seed5302__c5_candidate__300s\external\native_logs\L0.1.1_lp.gurobi.log"
Gurobi Optimizer version 13.0.2 build v13.0.2rc1 (win64 - Windows 10.0 (19045.2))

CPU model: 12th Gen Intel(R) Core(TM) i7-12700KF, instruction set [SSE2|AVX|AVX2]
Thread count: 12 physical cores, 20 logical processors, using up to 1 threads

Non-default parameters:
TimeLimit  180.5878942
MIPGap  0
MIPGapAbs  0
LogToConsole  0
Threads  1

Optimize a model with 11932 rows, 3382 columns and 67410 nonzeros (Min)
Model fingerprint: 0xfde9efbc
Model has 21 linear objective coefficients
Coefficient statistics:
  Matrix range     [9e-03, 2e+04]
  Objective range  [9e-03, 1e+00]
  Bounds range     [2e-02, 2e+02]
  RHS range        [2e-02, 5e+04]

Presolve removed 424 rows and 102 columns
Presolve time: 0.03s
Presolved: 11508 rows, 3425 columns, 66433 nonzeros

Iteration    Objective       Primal Inf.    Dual Inf.      Time
       0    2.0565299e-02   4.125977e+02   0.000000e+00      0s

Extra simplex iterations after uncrush: 6
    3339    2.6217833e-02   0.000000e+00   0.000000e+00      0s

Solved in 3339 iterations and 0.23 seconds (0.71 work units)
Optimal objective  2.621783266e-02

User-callback calls 3488, time in user-callback 0.00 sec
